Route #1: 28 42 78 65 25
Route #2: 75 93
Route #3: 82 60 59
Route #4: 1 70 54
Route #5: 66 84 90 68
Route #6: 44 67 88 40
Route #7: 20 41 22 15
Route #8: 83 51 81
Route #9: 74 13 4
Route #10: 76 55 16 69
Route #11: 87 37 6 49 14
Route #12: 30 85 11 79
Route #13: 71 62 99 98 89
Route #14: 31 46 35
Route #15: 38 47 26 48 96 64 34
Route #16: 23 61 100
Route #17: 27 97 19
Route #18: 57 72 36 29 43 45 2 7
Route #19: 32 33 53 73 95 24
Route #20: 39 10 18
Route #21: 5 12 58
Route #22: 21 56 94 80
Route #23: 3 77 63
Route #24: 8 17
Route #25: 92 9 86
Route #26: 52 91 50
Cost 27591.0000
Time 16.0008